c description: Random 3-CNF over 15 variables and 30 clauses
c generator: CNFgen (0.9.0)
c copyright: (C) 2012-2020 Massimo Lauria <massimo.lauria@uniroma1.it>
c url: https://massimolauria.net/cnfgen
c
p cnf 15 30
8 11 -14 0
-6 -10 -15 0
2 9 -13 0
6 -9 -15 0
1 -7 10 0
1 2 9 0
1 4 -6 0
4 5 11 0
-2 3 -13 0
1 -3 11 0
4 10 11 0
-1 11 -12 0
2 -4 14 0
-6 -10 13 0
-4 12 -14 0
-3 -9 14 0
-4 7 10 0
2 7 14 0
1 -5 13 0
-3 -6 15 0
-1 2 -4 0
8 -9 -13 0
3 13 14 0
-7 -12 15 0
-4 -8 -15 0
-1 -3 8 0
2 -5 -11 0
2 14 15 0
1 -3 -10 0
3 6 13 0